Welcome to the CBC MILP Solver 
Version: 2.10.12 
Build Date: Aug 20 2024 

command line - /opt/homebrew/bin/cbc computational_data/real_data/lp/wdbc_trial_019_margin.lp seconds 10.0 solve solu computational_data/real_data/solutions/wdbc_trial_019_margin.sol (default strategy 1)
 CoinLpIO::readLp(): Maximization problem reformulated as minimization
Coin0009I Switching back to maximization to get correct duals etc
seconds was changed from 1e+100 to 10
Continuous objective value is 111.577 - 0.00 seconds
Cgl0003I 0 fixed, 0 tightened bounds, 151 strengthened rows, 0 substitutions
Cgl0003I 0 fixed, 0 tightened bounds, 58 strengthened rows, 0 substitutions
Cgl0003I 0 fixed, 0 tightened bounds, 53 strengthened rows, 0 substitutions
Cgl0003I 0 fixed, 0 tightened bounds, 30 strengthened rows, 0 substitutions
Cgl0003I 0 fixed, 0 tightened bounds, 18 strengthened rows, 0 substitutions
Cgl0003I 0 fixed, 0 tightened bounds, 11 strengthened rows, 0 substitutions
Cgl0003I 0 fixed, 0 tightened bounds, 5 strengthened rows, 0 substitutions
Cgl0003I 0 fixed, 0 tightened bounds, 4 strengthened rows, 0 substitutions
Cgl0003I 0 fixed, 0 tightened bounds, 4 strengthened rows, 0 substitutions
Cgl0004I processed model has 83 rows, 48 columns (48 integer (48 of which binary)) and 920 elements
Cbc0038I Initial state - 2 integers unsatisfied sum - 0.571429
Cbc0038I Pass   1: suminf.    0.57143 (2) obj. 111.434 iterations 6
Cbc0038I Solution found of 110.006
Cbc0038I Before mini branch and bound, 46 integers at bound fixed and 0 continuous
Cbc0038I Full problem 83 rows 48 columns, reduced to 0 rows 0 columns
Cbc0038I Mini branch and bound did not improve solution (0.01 seconds)
Cbc0038I Round again with cutoff of 110.149
Cbc0038I Pass   2: suminf.    0.57143 (2) obj. 111.434 iterations 0
Cbc0038I Pass   3: suminf.    0.14287 (1) obj. 110.149 iterations 9
Cbc0038I Pass   4: suminf.    0.14286 (1) obj. 110.863 iterations 2
Cbc0038I Pass   5: suminf.    2.42860 (7) obj. 110.149 iterations 12
Cbc0038I Pass   6: suminf.    0.71432 (4) obj. 110.149 iterations 3
Cbc0038I Pass   7: suminf.    0.71432 (4) obj. 110.149 iterations 0
Cbc0038I Pass   8: suminf.    0.42861 (3) obj. 110.149 iterations 5
Cbc0038I Pass   9: suminf.    0.42861 (3) obj. 110.149 iterations 2
Cbc0038I Pass  10: suminf.    3.53851 (18) obj. 110.149 iterations 17
Cbc0038I Pass  11: suminf.    0.71431 (4) obj. 110.149 iterations 17
Cbc0038I Pass  12: suminf.    0.71431 (4) obj. 110.149 iterations 3
Cbc0038I Pass  13: suminf.    0.42860 (3) obj. 110.149 iterations 7
Cbc0038I Pass  14: suminf.    0.42860 (3) obj. 110.149 iterations 3
Cbc0038I Pass  15: suminf.    0.42860 (3) obj. 110.149 iterations 9
Cbc0038I Pass  16: suminf.    0.42860 (3) obj. 110.149 iterations 7
Cbc0038I Pass  17: suminf.    2.71426 (7) obj. 110.149 iterations 18
Cbc0038I Pass  18: suminf.    1.42859 (4) obj. 110.149 iterations 4
Cbc0038I Pass  19: suminf.    0.85713 (2) obj. 110.149 iterations 6
Cbc0038I Pass  20: suminf.    0.57143 (2) obj. 110.434 iterations 7
Cbc0038I Pass  21: suminf.    0.42858 (2) obj. 110.149 iterations 10
Cbc0038I Pass  22: suminf.    0.42858 (2) obj. 110.149 iterations 1
Cbc0038I Pass  23: suminf.    0.85713 (2) obj. 110.149 iterations 8
Cbc0038I Pass  24: suminf.    4.71433 (11) obj. 110.149 iterations 27
Cbc0038I Pass  25: suminf.    2.42841 (7) obj. 110.149 iterations 31
Cbc0038I Pass  26: suminf.    1.42859 (4) obj. 110.149 iterations 10
Cbc0038I Pass  27: suminf.    0.42858 (2) obj. 110.149 iterations 5
Cbc0038I Pass  28: suminf.    0.85713 (2) obj. 110.149 iterations 11
Cbc0038I Pass  29: suminf.    0.57143 (2) obj. 110.434 iterations 3
Cbc0038I Pass  30: suminf.    0.42858 (2) obj. 110.149 iterations 17
Cbc0038I Pass  31: suminf.    1.85712 (5) obj. 110.149 iterations 22
Cbc0038I No solution found this major pass
Cbc0038I Before mini branch and bound, 15 integers at bound fixed and 0 continuous
Cbc0038I Full problem 83 rows 48 columns, reduced to 66 rows 33 columns
Cbc0038I Mini branch and bound did not improve solution (0.01 seconds)
Cbc0038I After 0.01 seconds - Feasibility pump exiting with objective of 110.006 - took 0.01 seconds
Cbc0012I Integer solution of 110.00572 found by feasibility pump after 0 iterations and 0 nodes (0.01 seconds)
Cbc0031I 5 added rows had average density of 28.6
Cbc0013I At root node, 24 cuts changed objective from 111.43429 to 110.00572 in 4 passes
Cbc0014I Cut generator 0 (Probing) - 2 row cuts average 2.0 elements, 0 column cuts (0 active)  in 0.000 seconds - new frequency is -100
Cbc0014I Cut generator 1 (Gomory) - 23 row cuts average 27.6 elements, 0 column cuts (0 active)  in 0.000 seconds - new frequency is 1
Cbc0014I Cut generator 2 (Knapsack) - 4 row cuts average 8.8 elements, 0 column cuts (0 active)  in 0.000 seconds - new frequency is 1
Cbc0014I Cut generator 3 (Clique) - 0 row cuts average 0.0 elements, 0 column cuts (0 active)  in 0.000 seconds - new frequency is -100
Cbc0014I Cut generator 4 (MixedIntegerRounding2) - 3 row cuts average 28.3 elements, 0 column cuts (0 active)  in 0.000 seconds - new frequency is 1
Cbc0014I Cut generator 5 (FlowCover) - 0 row cuts average 0.0 elements, 0 column cuts (0 active)  in 0.000 seconds - new frequency is -100
Cbc0014I Cut generator 6 (TwoMirCuts) - 36 row cuts average 27.3 elements, 0 column cuts (0 active)  in 0.001 seconds - new frequency is -100
Cbc0014I Cut generator 7 (ZeroHalf) - 4 row cuts average 7.2 elements, 0 column cuts (0 active)  in 0.004 seconds - new frequency is 1
Cbc0001I Search completed - best objective 110.005716, took 62 iterations and 0 nodes (0.02 seconds)
Cbc0035I Maximum depth 0, 17 variables fixed on reduced cost
Cuts at root node changed objective from 111.434 to 110.006
Probing was tried 4 times and created 2 cuts of which 0 were active after adding rounds of cuts (0.000 seconds)
Gomory was tried 4 times and created 23 cuts of which 0 were active after adding rounds of cuts (0.000 seconds)
Knapsack was tried 4 times and created 4 cuts of which 0 were active after adding rounds of cuts (0.000 seconds)
Clique was tried 4 times and created 0 cuts of which 0 were active after adding rounds of cuts (0.000 seconds)
MixedIntegerRounding2 was tried 4 times and created 3 cuts of which 0 were active after adding rounds of cuts (0.000 seconds)
FlowCover was tried 4 times and created 0 cuts of which 0 were active after adding rounds of cuts (0.000 seconds)
TwoMirCuts was tried 4 times and created 36 cuts of which 0 were active after adding rounds of cuts (0.001 seconds)
ZeroHalf was tried 4 times and created 4 cuts of which 0 were active after adding rounds of cuts (0.004 seconds)

Result - Optimal solution found

Objective value:                110.00571600
Enumerated nodes:               0
Total iterations:               62
Time (CPU seconds):             0.02
Time (Wallclock seconds):       0.03

Total time (CPU seconds):       0.02   (Wallclock seconds):       0.04

